(declare-const X String)
; ^(\d|,)*\.?\d*$
(assert (not (str.in_re X (re.++ (re.* (re.union (re.range "0" "9") (str.to_re ","))) (re.opt (str.to_re ".")) (re.* (re.range "0" "9")) (str.to_re "\u{a}")))))
; logs\d+X-Mailer\x3a\d+url=enews\x2Eearthlink\x2Enet
(assert (str.in_re X (re.++ (str.to_re "logs") (re.+ (re.range "0" "9")) (str.to_re "X-Mailer:\u{13}") (re.+ (re.range "0" "9")) (str.to_re "url=enews.earthlink.net\u{a}"))))
; thesearchresltLoggerHost\x3ABetaHWAEHost\x3Ais
(assert (str.in_re X (str.to_re "thesearchresltLoggerHost:BetaHWAEHost:is\u{a}")))
(check-sat)
